(declare-const X String)
; \b[A-z0-9._%-]+@[A-Z0-9.-]+\.[A-Z]{2,4}\b
(assert (str.in_re X (re.++ (re.+ (re.union (re.range "A" "z") (re.range "0" "9") (str.to_re ".") (str.to_re "_") (str.to_re "%") (str.to_re "-"))) (str.to_re "@") (re.+ (re.union (re.range "A" "Z") (re.range "0" "9") (str.to_re ".") (str.to_re "-"))) (str.to_re ".") ((_ re.loop 2 4) (re.range "A" "Z")) (str.to_re "\u{a}"))))
; /filename=[^\n]*\u{2e}pict/i
(assert (not (str.in_re X (re.++ (str.to_re "/filename=") (re.* (re.comp (str.to_re "\u{a}"))) (str.to_re ".pict/i\u{a}")))))
; User-Agent\u{3a}\s+sErver\s+-~-GREATHost\u{3a}
(assert (str.in_re X (re.++ (str.to_re "User-Agent:") (re.+ (re.union (str.to_re " ") (str.to_re "\u{9}") (str.to_re "\u{a}") (str.to_re "\u{c}") (str.to_re "\u{d}"))) (str.to_re "sErver") (re.+ (re.union (str.to_re " ") (str.to_re "\u{9}") (str.to_re "\u{a}") (str.to_re "\u{c}") (str.to_re "\u{d}"))) (str.to_re "-~-GREATHost:\u{a}"))))
; [\t ]+
(assert (str.in_re X (re.++ (re.+ (re.union (str.to_re "\u{9}") (str.to_re " "))) (str.to_re "\u{a}"))))
(check-sat)
